Number of options: 40
Size of codes: 100
8 12 24 11 25 8 7 34 14 3 26 35 4 32 28 3 14 8 18 17 33 16 11 18 3 39 0 28 24 27 23 25 32 34 26 4 11 10 28 12 2 5 3 9 24 24 34 4 0 8 16 3 8 24 11 14 32 20 9 28 1 17 37 30 33 31 37 36 34 29 14 2 27 25 35 23 7 18 0 2 17 7 4 3 28 38 34 26 3 16 15 30 1 29 9 24 9 14 6 23 
Size of probabilities: 100
0.56 0.16 0.07 0.06 0.15 0.28 0.04 0.63 0.03 0.03 0.16 0.08 0.48 0.15 0.12 0.06 0.05 0.52 0.33 0.04 0.21 0.13 0.09 0.48 0.09 0.24 0.52 0.09 0.06 0.09 0.3 0.06 0.05 0.54 0.05 0.32 0.05 0.42 0.08 0.13 0.13 0.11 0.08 0.59 0.09 0.02 0.45 0.14 0.2 0.19 0.11 0.08 0.66 0.08 0.07 0.07 0.15 0.1 0.57 0.12 0.26 0.04 0.38 0.19 0.14 0.04 0.21 0.03 0.64 0.08 0.11 0.23 0.21 0.31 0.14 0.39 0.04 0.19 0.32 0.06 0.06 0.11 0.58 0.1 0.15 0.05 0.77 0.08 0.04 0.06 0.26 0.14 0.19 0.11 0.31 0.05 0.35 0.04 0.02 0.53 
Number of assortments: 20
Sizes of assortments: 5 5 5 5 5 5 5 5 5 5 5 5 5 5 5 5 5 5 5 5 
-------------------Iteration: 1
CPXPARAM_MIP_Display                             1
CPXPARAM_MIP_Strategy_CallbackReducedLP          0
Tried aggregator 1 time.
LP Presolve eliminated 101 rows and 201 columns.
All rows and columns eliminated.
Presolve time = 0.00 sec. (0.04 ticks)
***********************************************************
Objective value of restricted master problem: 30.86
Lamda: 1 
***********************************************************
CPXPARAM_MIP_Display                             1
CPXPARAM_MIP_Strategy_CallbackReducedLP          0
Tried aggregator 2 times.
MIP Presolve eliminated 40300 rows and 0 columns.
Aggregator did 780 substitutions.
Reduced MIP has 20180 rows, 880 columns, and 60180 nonzeros.
Reduced MIP has 780 binaries, 0 generals, 0 SOSs, and 0 indicators.
Presolve time = 0.19 sec. (123.32 ticks)
Probing time = 0.00 sec. (1.30 ticks)
Tried aggregator 1 time.
Reduced MIP has 20180 rows, 880 columns, and 60180 nonzeros.
Reduced MIP has 780 binaries, 0 generals, 0 SOSs, and 0 indicators.
Presolve time = 0.03 sec. (28.05 ticks)
Probing time = 0.01 sec. (1.30 ticks)
MIP emphasis: balance optimality and feasibility.
MIP search method: dynamic search.
Parallel mode: deterministic, using up to 8 threads.

Node log . . .
Best integer =   0.000000e+00  Node =       0  Best node =  -1.000000e+02
Best integer =  -4.000000e+01  Node =       0  Best node =  -1.000000e+02
***********************************************************

***********************************************************
-------------------Iteration: 2
CPXPARAM_MIP_Display                             1
CPXPARAM_MIP_Strategy_CallbackReducedLP          0
Tried aggregator 1 time.
LP Presolve eliminated 60 rows and 120 columns.
Aggregator did 1 substitutions.
Reduced LP has 40 rows, 81 columns, and 120 nonzeros.
Presolve time = 0.00 sec. (0.07 ticks)
Initializing dual steep norms . . .

Iteration log . . .
Iteration:     1   Dual objective     =            11.440000
***********************************************************
Objective value of restricted master problem: 22.38
Lamda: 0.55 0.45 
***********************************************************
CPXPARAM_MIP_Display                             1
CPXPARAM_MIP_Strategy_CallbackReducedLP          0
Tried aggregator 2 times.
MIP Presolve eliminated 40300 rows and 0 columns.
Aggregator did 780 substitutions.
Reduced MIP has 20180 rows, 880 columns, and 60180 nonzeros.
Reduced MIP has 780 binaries, 0 generals, 0 SOSs, and 0 indicators.
Presolve time = 0.19 sec. (123.32 ticks)
Probing time = 0.00 sec. (1.30 ticks)
Tried aggregator 1 time.
Reduced MIP has 20180 rows, 880 columns, and 60180 nonzeros.
Reduced MIP has 780 binaries, 0 generals, 0 SOSs, and 0 indicators.
Presolve time = 0.03 sec. (28.05 ticks)
Probing time = 0.00 sec. (1.30 ticks)
MIP emphasis: balance optimality and feasibility.
MIP search method: dynamic search.
Parallel mode: deterministic, using up to 8 threads.

Node log . . .
Best integer =   0.000000e+00  Node =       0  Best node =  -8.000000e+01
Best integer =  -3.600000e+01  Node =       0  Best node =  -3.600000e+01
***********************************************************

***********************************************************
-------------------Iteration: 3
CPXPARAM_MIP_Display                             1
CPXPARAM_MIP_Strategy_CallbackReducedLP          0
Tried aggregator 1 time.
LP Presolve eliminated 41 rows and 82 columns.
Reduced LP has 60 rows, 121 columns, and 181 nonzeros.
Presolve time = 0.00 sec. (0.06 ticks)

Iteration log . . .
Iteration:     1   Dual objective     =             8.220000
***********************************************************
Objective value of restricted master problem: 19.58
Lamda: 0.32 0.39 0.29 
***********************************************************
CPXPARAM_MIP_Display                             1
CPXPARAM_MIP_Strategy_CallbackReducedLP          0
Tried aggregator 2 times.
MIP Presolve eliminated 40300 rows and 0 columns.
Aggregator did 780 substitutions.
Reduced MIP has 20180 rows, 880 columns, and 60180 nonzeros.
Reduced MIP has 780 binaries, 0 generals, 0 SOSs, and 0 indicators.
Presolve time = 0.16 sec. (123.32 ticks)
Probing time = 0.00 sec. (1.30 ticks)
Tried aggregator 1 time.
Reduced MIP has 20180 rows, 880 columns, and 60180 nonzeros.
Reduced MIP has 780 binaries, 0 generals, 0 SOSs, and 0 indicators.
Presolve time = 0.03 sec. (28.05 ticks)
Probing time = 0.00 sec. (1.30 ticks)
MIP emphasis: balance optimality and feasibility.
MIP search method: dynamic search.
Parallel mode: deterministic, using up to 8 threads.

Node log . . .
Best integer =   0.000000e+00  Node =       0  Best node =  -6.400000e+01
Best integer =  -2.800000e+01  Node =       0  Best node =  -3.400000e+01
Best integer =  -3.400000e+01  Node =       0  Best node =  -3.400000e+01
***********************************************************

***********************************************************
-------------------Iteration: 4
CPXPARAM_MIP_Display                             1
CPXPARAM_MIP_Strategy_CallbackReducedLP          0
Tried aggregator 1 time.
LP Presolve eliminated 27 rows and 54 columns.
Reduced LP has 74 rows, 150 columns, and 230 nonzeros.
Presolve time = 0.00 sec. (0.07 ticks)

Iteration log . . .
Iteration:     1   Dual objective     =             4.510000
Iteration:    62   Dual objective     =            13.980000
***********************************************************
Objective value of restricted master problem: 14.24
Lamda: 0.23 0.31 0.11 0.35 
***********************************************************
CPXPARAM_MIP_Display                             1
CPXPARAM_MIP_Strategy_CallbackReducedLP          0
Tried aggregator 2 times.
MIP Presolve eliminated 40300 rows and 0 columns.
Aggregator did 780 substitutions.
Reduced MIP has 20180 rows, 880 columns, and 60180 nonzeros.
Reduced MIP has 780 binaries, 0 generals, 0 SOSs, and 0 indicators.
Presolve time = 0.16 sec. (123.30 ticks)
Probing time = 0.00 sec. (1.30 ticks)
Tried aggregator 1 time.
Reduced MIP has 20180 rows, 880 columns, and 60180 nonzeros.
Reduced MIP has 780 binaries, 0 generals, 0 SOSs, and 0 indicators.
Presolve time = 0.03 sec. (28.06 ticks)
Probing time = 0.00 sec. (1.30 ticks)
MIP emphasis: balance optimality and feasibility.
MIP search method: dynamic search.
Parallel mode: deterministic, using up to 8 threads.

Node log . . .
Best integer =   0.000000e+00  Node =       0  Best node =  -5.600000e+01
Best integer =  -2.200000e+01  Node =       0  Best node =  -2.800000e+01
Best integer =  -2.800000e+01  Node =       0  Best node =  -2.800000e+01
***********************************************************

***********************************************************
-------------------Iteration: 5
CPXPARAM_MIP_Display                             1
CPXPARAM_MIP_Strategy_CallbackReducedLP          0
Tried aggregator 1 time.
LP Presolve eliminated 19 rows and 38 columns.
Reduced LP has 82 rows, 167 columns, and 267 nonzeros.
Presolve time = 0.00 sec. (0.07 ticks)

Iteration log . . .
Iteration:     1   Dual objective     =             2.090000
Iteration:    62   Dual objective     =             9.820000
***********************************************************
Objective value of restricted master problem: 10.3
Lamda: 0.19 0.15 0.08 0.29 0.29 
***********************************************************
CPXPARAM_MIP_Display                             1
CPXPARAM_MIP_Strategy_CallbackReducedLP          0
Tried aggregator 2 times.
MIP Presolve eliminated 40300 rows and 0 columns.
Aggregator did 780 substitutions.
Reduced MIP has 20180 rows, 880 columns, and 60180 nonzeros.
Reduced MIP has 780 binaries, 0 generals, 0 SOSs, and 0 indicators.
Presolve time = 0.16 sec. (123.31 ticks)
Probing time = 0.00 sec. (1.30 ticks)
Tried aggregator 1 time.
Reduced MIP has 20180 rows, 880 columns, and 60180 nonzeros.
Reduced MIP has 780 binaries, 0 generals, 0 SOSs, and 0 indicators.
Presolve time = 0.03 sec. (27.44 ticks)
Probing time = 0.00 sec. (1.30 ticks)
MIP emphasis: balance optimality and feasibility.
MIP search method: dynamic search.
Parallel mode: deterministic, using up to 8 threads.

Node log . . .
Best integer =   0.000000e+00  Node =       0  Best node =  -5.300000e+01
Best integer =  -2.000000e+00  Node =       0  Best node =  -5.300000e+01
Best integer =  -2.000000e+01  Node =       0  Best node =  -2.200000e+01
Best integer =  -2.200000e+01  Node =       0  Best node =  -2.200000e+01
***********************************************************

***********************************************************
-------------------Iteration: 6
CPXPARAM_MIP_Display                             1
CPXPARAM_MIP_Strategy_CallbackReducedLP          0
Tried aggregator 1 time.
LP Presolve eliminated 18 rows and 36 columns.
Reduced LP has 83 rows, 170 columns, and 290 nonzeros.
Presolve time = 0.00 sec. (0.07 ticks)

Iteration log . . .
Iteration:     1   Dual objective     =             1.810000
Iteration:    62   Dual objective     =             8.140000
***********************************************************
Objective value of restricted master problem: 8.54
Lamda: 0.08 0.15 0.06 0.21 0.26 0.24 
***********************************************************
CPXPARAM_MIP_Display                             1
CPXPARAM_MIP_Strategy_CallbackReducedLP          0
Tried aggregator 2 times.
MIP Presolve eliminated 40300 rows and 0 columns.
Aggregator did 780 substitutions.
Reduced MIP has 20180 rows, 880 columns, and 60180 nonzeros.
Reduced MIP has 780 binaries, 0 generals, 0 SOSs, and 0 indicators.
Presolve time = 0.16 sec. (123.28 ticks)
Probing time = 0.00 sec. (1.30 ticks)
Tried aggregator 1 time.
Reduced MIP has 20180 rows, 880 columns, and 60180 nonzeros.
Reduced MIP has 780 binaries, 0 generals, 0 SOSs, and 0 indicators.
Presolve time = 0.03 sec. (28.06 ticks)
Probing time = 0.00 sec. (1.30 ticks)
MIP emphasis: balance optimality and feasibility.
MIP search method: dynamic search.
Parallel mode: deterministic, using up to 8 threads.

Node log . . .
Best integer =   0.000000e+00  Node =       0  Best node =  -5.100000e+01
Best integer =  -2.600000e+01  Node =       0  Best node =  -2.800000e+01
Best integer =  -2.800000e+01  Node =       0  Best node =  -2.800000e+01
***********************************************************

***********************************************************
-------------------Iteration: 7
CPXPARAM_MIP_Display                             1
CPXPARAM_MIP_Strategy_CallbackReducedLP          0
Tried aggregator 1 time.
LP Presolve eliminated 11 rows and 22 columns.
Reduced LP has 90 rows, 185 columns, and 325 nonzeros.
Presolve time = 0.00 sec. (0.07 ticks)

Iteration log . . .
Iteration:     1   Dual objective     =             1.080000
Iteration:    62   Dual objective     =             6.160000
***********************************************************
Objective value of restricted master problem: 6.62
Lamda: 0.08 0.14 0.04 0.16 0.22 0.24 0.12 
***********************************************************
CPXPARAM_MIP_Display                             1
CPXPARAM_MIP_Strategy_CallbackReducedLP          0
Tried aggregator 2 times.
MIP Presolve eliminated 40300 rows and 0 columns.
Aggregator did 780 substitutions.
Reduced MIP has 20180 rows, 880 columns, and 60180 nonzeros.
Reduced MIP has 780 binaries, 0 generals, 0 SOSs, and 0 indicators.
Presolve time = 0.16 sec. (123.29 ticks)
Probing time = 0.00 sec. (1.30 ticks)
Tried aggregator 1 time.
Reduced MIP has 20180 rows, 880 columns, and 60180 nonzeros.
Reduced MIP has 780 binaries, 0 generals, 0 SOSs, and 0 indicators.
Presolve time = 0.03 sec. (27.46 ticks)
Probing time = 0.00 sec. (1.30 ticks)
MIP emphasis: balance optimality and feasibility.
MIP search method: dynamic search.
Parallel mode: deterministic, using up to 8 threads.

Node log . . .
Best integer =   0.000000e+00  Node =       0  Best node =  -4.800000e+01
Best integer =  -1.700000e+01  Node =       0  Best node =  -2.200000e+01
Best integer =  -2.200000e+01  Node =       0  Best node =  -2.200000e+01
***********************************************************

***********************************************************
-------------------Iteration: 8
CPXPARAM_MIP_Display                             1
CPXPARAM_MIP_Strategy_CallbackReducedLP          0
Tried aggregator 1 time.
LP Presolve eliminated 5 rows and 10 columns.
Reduced LP has 96 rows, 198 columns, and 358 nonzeros.
Presolve time = 0.00 sec. (0.08 ticks)

Iteration log . . .
Iteration:     1   Dual objective     =             0.330000
Iteration:    62   Dual objective     =             4.610000
***********************************************************
Objective value of restricted master problem: 5.3
Lamda: 0.06 0.09 0.04 0.15 0.22 0.2 0.12 0.12 
***********************************************************
CPXPARAM_MIP_Display                             1
CPXPARAM_MIP_Strategy_CallbackReducedLP          0
Tried aggregator 2 times.
MIP Presolve eliminated 40300 rows and 0 columns.
Aggregator did 780 substitutions.
Reduced MIP has 20180 rows, 880 columns, and 60180 nonzeros.
Reduced MIP has 780 binaries, 0 generals, 0 SOSs, and 0 indicators.
Presolve time = 0.15 sec. (123.32 ticks)
Probing time = 0.00 sec. (1.30 ticks)
Tried aggregator 1 time.
Reduced MIP has 20180 rows, 880 columns, and 60180 nonzeros.
Reduced MIP has 780 binaries, 0 generals, 0 SOSs, and 0 indicators.
Presolve time = 0.03 sec. (27.45 ticks)
Probing time = 0.00 sec. (1.30 ticks)
MIP emphasis: balance optimality and feasibility.
MIP search method: dynamic search.
Parallel mode: deterministic, using up to 8 threads.

Node log . . .
Best integer =   0.000000e+00  Node =       0  Best node =  -4.500000e+01
Best integer =  -2.000000e+00  Node =       0  Best node =  -4.500000e+01
Best integer =  -1.400000e+01  Node =       0  Best node =  -1.800000e+01
Best integer =  -1.800000e+01  Node =       0  Best node =  -1.800000e+01
***********************************************************

***********************************************************
-------------------Iteration: 9
CPXPARAM_MIP_Display                             1
CPXPARAM_MIP_Strategy_CallbackReducedLP          0
Tried aggregator 1 time.
LP Presolve eliminated 4 rows and 8 columns.
Reduced LP has 97 rows, 201 columns, and 381 nonzeros.
Presolve time = 0.00 sec. (0.08 ticks)

Iteration log . . .
Iteration:     1   Dual objective     =             0.250000
Iteration:    62   Dual objective     =             3.950000
***********************************************************
Objective value of restricted master problem: 4.4
Lamda: 0.05 0.07 0.04 0.12 0.18 0.21 0.12 0.13 0.08 
***********************************************************
CPXPARAM_MIP_Display                             1
CPXPARAM_MIP_Strategy_CallbackReducedLP          0
Tried aggregator 2 times.
MIP Presolve eliminated 40300 rows and 0 columns.
Aggregator did 780 substitutions.
Reduced MIP has 20180 rows, 880 columns, and 60180 nonzeros.
Reduced MIP has 780 binaries, 0 generals, 0 SOSs, and 0 indicators.
Presolve time = 0.16 sec. (123.34 ticks)
Probing time = 0.00 sec. (1.30 ticks)
Tried aggregator 1 time.
Reduced MIP has 20180 rows, 880 columns, and 60180 nonzeros.
Reduced MIP has 780 binaries, 0 generals, 0 SOSs, and 0 indicators.
Presolve time = 0.03 sec. (28.07 ticks)
Probing time = 0.00 sec. (1.30 ticks)
MIP emphasis: balance optimality and feasibility.
MIP search method: dynamic search.
Parallel mode: deterministic, using up to 8 threads.

Node log . . .
Best integer =   0.000000e+00  Node =       0  Best node =  -4.900000e+01
Best integer =  -1.600000e+01  Node =       0  Best node =  -1.600000e+01
***********************************************************

***********************************************************
-------------------Iteration: 10
CPXPARAM_MIP_Display                             1
CPXPARAM_MIP_Strategy_CallbackReducedLP          0
Tried aggregator 1 time.
LP Presolve eliminated 3 rows and 6 columns.
Reduced LP has 98 rows, 204 columns, and 404 nonzeros.
Presolve time = 0.00 sec. (0.08 ticks)

Iteration log . . .
Iteration:     1   Dual objective     =             0.140000
Iteration:    62   Dual objective     =             3.350000
***********************************************************
Objective value of restricted master problem: 3.82
Lamda: 0.05 0.07 0.03 0.08 0.18 0.16 0.12 0.12 0.08 0.11 
***********************************************************
CPXPARAM_MIP_Display                             1
CPXPARAM_MIP_Strategy_CallbackReducedLP          0
Tried aggregator 2 times.
MIP Presolve eliminated 40300 rows and 0 columns.
Aggregator did 780 substitutions.
Reduced MIP has 20180 rows, 880 columns, and 60180 nonzeros.
Reduced MIP has 780 binaries, 0 generals, 0 SOSs, and 0 indicators.
Presolve time = 0.16 sec. (123.29 ticks)
Probing time = 0.00 sec. (1.30 ticks)
Tried aggregator 1 time.
Reduced MIP has 20180 rows, 880 columns, and 60180 nonzeros.
Reduced MIP has 780 binaries, 0 generals, 0 SOSs, and 0 indicators.
Presolve time = 0.03 sec. (27.43 ticks)
Probing time = 0.00 sec. (1.30 ticks)
MIP emphasis: balance optimality and feasibility.
MIP search method: dynamic search.
Parallel mode: deterministic, using up to 8 threads.

Node log . . .
Best integer =   0.000000e+00  Node =       0  Best node =  -4.700000e+01
Best integer =  -1.200000e+01  Node =       0  Best node =  -1.600000e+01
Best integer =  -1.600000e+01  Node =       0  Best node =  -1.600000e+01
***********************************************************

***********************************************************
-------------------Iteration: 11
CPXPARAM_MIP_Display                             1
CPXPARAM_MIP_Strategy_CallbackReducedLP          0
Tried aggregator 1 time.
LP Presolve eliminated 1 rows and 2 columns.
Reduced LP has 100 rows, 209 columns, and 429 nonzeros.
Presolve time = 0.00 sec. (0.08 ticks)

Iteration log . . .
Iteration:     1   Dual objective     =             0.050000
Iteration:    62   Dual objective     =             2.915000
***********************************************************
Objective value of restricted master problem: 3.5
Lamda: 0.04 0.05 0.04 0.06 0.15 0.16 0.12 0.12 0.1 0.12 0.04 
***********************************************************
CPXPARAM_MIP_Display                             1
CPXPARAM_MIP_Strategy_CallbackReducedLP          0
Tried aggregator 2 times.
MIP Presolve eliminated 40300 rows and 0 columns.
Aggregator did 780 substitutions.
Reduced MIP has 20180 rows, 880 columns, and 60180 nonzeros.
Reduced MIP has 780 binaries, 0 generals, 0 SOSs, and 0 indicators.
Presolve time = 0.16 sec. (123.31 ticks)
Probing time = 0.00 sec. (1.30 ticks)
Tried aggregator 1 time.
Reduced MIP has 20180 rows, 880 columns, and 60180 nonzeros.
Reduced MIP has 780 binaries, 0 generals, 0 SOSs, and 0 indicators.
Presolve time = 0.03 sec. (28.06 ticks)
Probing time = 0.00 sec. (1.30 ticks)
MIP emphasis: balance optimality and feasibility.
MIP search method: dynamic search.
Parallel mode: deterministic, using up to 8 threads.

Node log . . .
Best integer =   0.000000e+00  Node =       0  Best node =  -4.600000e+01
Best integer =  -1.600000e+01  Node =       0  Best node =  -1.600000e+01
***********************************************************

***********************************************************
-------------------Iteration: 12
CPXPARAM_MIP_Display                             1
CPXPARAM_MIP_Strategy_CallbackReducedLP          0
Tried aggregator 1 time.
No LP presolve or aggregator reductions.
Presolve time = 0.00 sec. (0.07 ticks)

Iteration log . . .
Iteration:     1   Dual objective     =             0.000000
Iteration:    62   Dual objective     =             2.380000
***********************************************************
Objective value of restricted master problem: 2.94
Lamda: 0.03 0.05 0.03 0.05 0.12 0.16 0.12 0.12 0.1 0.11 0.04 0.07 
***********************************************************
CPXPARAM_MIP_Display                             1
CPXPARAM_MIP_Strategy_CallbackReducedLP          0
Tried aggregator 2 times.
MIP Presolve eliminated 40300 rows and 0 columns.
Aggregator did 780 substitutions.
Reduced MIP has 20180 rows, 880 columns, and 60180 nonzeros.
Reduced MIP has 780 binaries, 0 generals, 0 SOSs, and 0 indicators.
Presolve time = 0.16 sec. (123.30 ticks)
Probing time = 0.00 sec. (1.30 ticks)
Tried aggregator 1 time.
Reduced MIP has 20180 rows, 880 columns, and 60180 nonzeros.
Reduced MIP has 780 binaries, 0 generals, 0 SOSs, and 0 indicators.
Presolve time = 0.03 sec. (27.45 ticks)
Probing time = 0.00 sec. (1.30 ticks)
MIP emphasis: balance optimality and feasibility.
MIP search method: dynamic search.
Parallel mode: deterministic, using up to 8 threads.

Node log . . .
Best integer =   0.000000e+00  Node =       0  Best node =  -4.400000e+01
Best integer =  -1.300000e+01  Node =       0  Best node =  -1.700000e+01
Best integer =  -1.700000e+01  Node =       0  Best node =  -1.700000e+01
***********************************************************

***********************************************************
-------------------Iteration: 13
CPXPARAM_MIP_Display                             1
CPXPARAM_MIP_Strategy_CallbackReducedLP          0
Tried aggregator 1 time.
No LP presolve or aggregator reductions.
Presolve time = 0.00 sec. (0.07 ticks)

Iteration log . . .
Iteration:     1   Dual objective     =             0.000000
Iteration:    62   Dual objective     =             2.260000
***********************************************************
Objective value of restricted master problem: 2.75
Lamda: 0.022 0.053 0.011 0.057 0.12 0.155 0.116 0.125 0.087 0.11 0.037 0.074 0.033 
***********************************************************
CPXPARAM_MIP_Display                             1
CPXPARAM_MIP_Strategy_CallbackReducedLP          0
Tried aggregator 2 times.
MIP Presolve eliminated 40300 rows and 0 columns.
Aggregator did 780 substitutions.
Reduced MIP has 20180 rows, 880 columns, and 60180 nonzeros.
Reduced MIP has 780 binaries, 0 generals, 0 SOSs, and 0 indicators.
Presolve time = 0.16 sec. (123.30 ticks)
Probing time = 0.00 sec. (1.30 ticks)
Tried aggregator 1 time.
Reduced MIP has 20180 rows, 880 columns, and 60180 nonzeros.
Reduced MIP has 780 binaries, 0 generals, 0 SOSs, and 0 indicators.
Presolve time = 0.03 sec. (27.45 ticks)
Probing time = 0.00 sec. (1.30 ticks)
MIP emphasis: balance optimality and feasibility.
MIP search method: dynamic search.
Parallel mode: deterministic, using up to 8 threads.

Node log . . .
Best integer =   0.000000e+00  Node =       0  Best node =  -4.300000e+01
Best integer =  -9.000000e+00  Node =       0  Best node =  -1.700000e+01
Best integer =  -1.700000e+01  Node =       0  Best node =  -1.700000e+01
***********************************************************

***********************************************************
-------------------Iteration: 14
CPXPARAM_MIP_Display                             1
CPXPARAM_MIP_Strategy_CallbackReducedLP          0
Tried aggregator 1 time.
No LP presolve or aggregator reductions.
Presolve time = 0.00 sec. (0.07 ticks)

Iteration log . . .
Iteration:     1   Dual objective     =             0.000000
Iteration:    62   Dual objective     =             1.995000
***********************************************************
Objective value of restricted master problem: 2.46
Lamda: 0.02 0.04 0 0.04 0.12 0.14 0.09 0.13 0.1 0.12 0.05 0.07 0.04 0.04 
***********************************************************
CPXPARAM_MIP_Display                             1
CPXPARAM_MIP_Strategy_CallbackReducedLP          0
Tried aggregator 2 times.
MIP Presolve eliminated 40300 rows and 0 columns.
Aggregator did 780 substitutions.
Reduced MIP has 20180 rows, 880 columns, and 60180 nonzeros.
Reduced MIP has 780 binaries, 0 generals, 0 SOSs, and 0 indicators.
Presolve time = 0.16 sec. (123.31 ticks)
Probing time = 0.00 sec. (1.30 ticks)
Tried aggregator 1 time.
Reduced MIP has 20180 rows, 880 columns, and 60180 nonzeros.
Reduced MIP has 780 binaries, 0 generals, 0 SOSs, and 0 indicators.
Presolve time = 0.03 sec. (27.43 ticks)
Probing time = 0.00 sec. (1.30 ticks)
MIP emphasis: balance optimality and feasibility.
MIP search method: dynamic search.
Parallel mode: deterministic, using up to 8 threads.

Node log . . .
Best integer =   0.000000e+00  Node =       0  Best node =  -4.000000e+01
Best integer =  -1.000000e+01  Node =       0  Best node =  -1.700000e+01
Best integer =  -1.700000e+01  Node =       0  Best node =  -1.700000e+01
***********************************************************

***********************************************************
-------------------Iteration: 15
CPXPARAM_MIP_Display                             1
CPXPARAM_MIP_Strategy_CallbackReducedLP          0
Tried aggregator 1 time.
No LP presolve or aggregator reductions.
Presolve time = 0.00 sec. (0.07 ticks)

Iteration log . . .
Iteration:     1   Dual objective     =             0.000000
Iteration:    62   Dual objective     =             1.610000
***********************************************************
Objective value of restricted master problem: 2.05333
Lamda: 0.0233333 0.0433333 0 0.04 0.116667 0.136667 0.0866667 0.116667 0.103333 0.123333 0.0366667 0.0666667 0.0333333 0.0366667 0.0366667 
***********************************************************
CPXPARAM_MIP_Display                             1
CPXPARAM_MIP_Strategy_CallbackReducedLP          0
Tried aggregator 2 times.
MIP Presolve eliminated 40300 rows and 0 columns.
Aggregator did 780 substitutions.
Reduced MIP has 20180 rows, 880 columns, and 60180 nonzeros.
Reduced MIP has 780 binaries, 0 generals, 0 SOSs, and 0 indicators.
Presolve time = 0.16 sec. (123.34 ticks)
Probing time = 0.00 sec. (1.30 ticks)
Tried aggregator 1 time.
Reduced MIP has 20180 rows, 880 columns, and 60180 nonzeros.
Reduced MIP has 780 binaries, 0 generals, 0 SOSs, and 0 indicators.
Presolve time = 0.03 sec. (27.46 ticks)
Probing time = 0.00 sec. (1.30 ticks)
MIP emphasis: balance optimality and feasibility.
MIP search method: dynamic search.
Parallel mode: deterministic, using up to 8 threads.

Node log . . .
Best integer =   0.000000e+00  Node =       0  Best node =  -4.133333e+01
Best integer =  -1.600000e+01  Node =       0  Best node =  -1.600000e+01
***********************************************************

***********************************************************
-------------------Iteration: 16
CPXPARAM_MIP_Display                             1
CPXPARAM_MIP_Strategy_CallbackReducedLP          0
Tried aggregator 1 time.
No LP presolve or aggregator reductions.
Presolve time = 0.00 sec. (0.07 ticks)

Iteration log . . .
Iteration:     1   Dual objective     =             0.000000
Iteration:    62   Dual objective     =             1.398750
***********************************************************
Objective value of restricted master problem: 1.775
Lamda: 0.02 0.035 0 0.04 0.11 0.135 0.08 0.115 0.105 0.11 0.04 0.065 0.035 0.035 0.04 0.035 
***********************************************************
CPXPARAM_MIP_Display                             1
CPXPARAM_MIP_Strategy_CallbackReducedLP          0
Tried aggregator 2 times.
MIP Presolve eliminated 40300 rows and 0 columns.
Aggregator did 780 substitutions.
Reduced MIP has 20180 rows, 880 columns, and 60180 nonzeros.
Reduced MIP has 780 binaries, 0 generals, 0 SOSs, and 0 indicators.
Presolve time = 0.16 sec. (123.33 ticks)
Probing time = 0.00 sec. (1.30 ticks)
Tried aggregator 1 time.
Reduced MIP has 20180 rows, 880 columns, and 60180 nonzeros.
Reduced MIP has 780 binaries, 0 generals, 0 SOSs, and 0 indicators.
Presolve time = 0.03 sec. (27.46 ticks)
Probing time = 0.00 sec. (1.30 ticks)
MIP emphasis: balance optimality and feasibility.
MIP search method: dynamic search.
Parallel mode: deterministic, using up to 8 threads.

Node log . . .
Best integer =   0.000000e+00  Node =       0  Best node =  -4.550000e+01
Best integer =  -1.000000e+00  Node =       0  Best node =  -4.550000e+01
Best integer =  -7.500000e+00  Node =       0  Best node =  -1.150000e+01
Best integer =  -1.150000e+01  Node =       0  Best node =  -1.150000e+01
***********************************************************

***********************************************************
-------------------Iteration: 17
CPXPARAM_MIP_Display                             1
CPXPARAM_MIP_Strategy_CallbackReducedLP          0
Tried aggregator 1 time.
No LP presolve or aggregator reductions.
Presolve time = 0.00 sec. (0.08 ticks)

Iteration log . . .
Iteration:     1   Dual objective     =             0.000000
Iteration:    62   Dual objective     =             1.300000
***********************************************************
Objective value of restricted master problem: 1.64122
Lamda: 0.00530612 0.0293878 0 0.0361224 0.11 0.132857 0.0791837 0.0969388 0.115306 0.103878 0.0330612 0.0602041 0.0373469 0.0371429 0.0502041 0.0485714 0.0244898 
***********************************************************
CPXPARAM_MIP_Display                             1
CPXPARAM_MIP_Strategy_CallbackReducedLP          0
Tried aggregator 2 times.
MIP Presolve eliminated 40300 rows and 0 columns.
Aggregator did 780 substitutions.
Reduced MIP has 20180 rows, 880 columns, and 60180 nonzeros.
Reduced MIP has 780 binaries, 0 generals, 0 SOSs, and 0 indicators.
Presolve time = 0.16 sec. (123.30 ticks)
Probing time = 0.00 sec. (1.30 ticks)
Tried aggregator 1 time.
Reduced MIP has 20180 rows, 880 columns, and 60180 nonzeros.
Reduced MIP has 780 binaries, 0 generals, 0 SOSs, and 0 indicators.
Presolve time = 0.03 sec. (27.46 ticks)
Probing time = 0.00 sec. (1.30 ticks)
MIP emphasis: balance optimality and feasibility.
MIP search method: dynamic search.
Parallel mode: deterministic, using up to 8 threads.

Node log . . .
Best integer =  -8.881784e-16  Node =       0  Best node =  -4.053061e+01
Best integer =  -1.251020e+01  Node =       0  Best node =  -1.351020e+01
Best integer =  -1.351020e+01  Node =       0  Best node =  -1.351020e+01
***********************************************************

***********************************************************
-------------------Iteration: 18
CPXPARAM_MIP_Display                             1
CPXPARAM_MIP_Strategy_CallbackReducedLP          0
Tried aggregator 1 time.
No LP presolve or aggregator reductions.
Presolve time = 0.00 sec. (0.08 ticks)

Iteration log . . .
Iteration:     1   Dual objective     =             0.000000
Iteration:    62   Dual objective     =             1.050000
***********************************************************
Objective value of restricted master problem: 1.34
Lamda: 0 0.0333333 0 0.0366667 0.11 0.123333 0.06 0.0933333 0.106667 0.103333 0.0333333 0.0633333 0.0466667 0.0266667 0.0466667 0.0466667 0.03 0.04 
***********************************************************
CPXPARAM_MIP_Display                             1
CPXPARAM_MIP_Strategy_CallbackReducedLP          0
Tried aggregator 2 times.
MIP Presolve eliminated 40300 rows and 0 columns.
Aggregator did 780 substitutions.
Reduced MIP has 20180 rows, 880 columns, and 60180 nonzeros.
Reduced MIP has 780 binaries, 0 generals, 0 SOSs, and 0 indicators.
Presolve time = 0.15 sec. (123.28 ticks)
Probing time = 0.00 sec. (1.30 ticks)
Tried aggregator 1 time.
Reduced MIP has 20180 rows, 880 columns, and 60180 nonzeros.
Reduced MIP has 780 binaries, 0 generals, 0 SOSs, and 0 indicators.
Presolve time = 0.03 sec. (27.44 ticks)
Probing time = 0.00 sec. (1.30 ticks)
MIP emphasis: balance optimality and feasibility.
MIP search method: dynamic search.
Parallel mode: deterministic, using up to 8 threads.

Node log . . .
Best integer =   3.000000e+00  Node =       0  Best node =  -4.400000e+01
Best integer =   0.000000e+00  Node =       0  Best node =  -4.400000e+01
Best integer =  -1.300000e+01  Node =       0  Best node =  -1.600000e+01
Best integer =  -1.600000e+01  Node =       0  Best node =  -1.600000e+01
***********************************************************

***********************************************************
-------------------Iteration: 19
CPXPARAM_MIP_Display                             1
CPXPARAM_MIP_Strategy_CallbackReducedLP          0
Tried aggregator 1 time.
No LP presolve or aggregator reductions.
Presolve time = 0.00 sec. (0.08 ticks)

Iteration log . . .
Iteration:     1   Dual objective     =             0.000000
Iteration:    62   Dual objective     =             0.935000
***********************************************************
Objective value of restricted master problem: 1.211
Lamda: 0 0.028 0 0.034 0.109 0.124 0.06 0.091 0.105 0.106 0.039 0.061 0.041 0.028 0.042 0.043 0.029 0.043 0.017 
***********************************************************
CPXPARAM_MIP_Display                             1
CPXPARAM_MIP_Strategy_CallbackReducedLP          0
Tried aggregator 2 times.
MIP Presolve eliminated 40300 rows and 0 columns.
Aggregator did 780 substitutions.
Reduced MIP has 20180 rows, 880 columns, and 60180 nonzeros.
Reduced MIP has 780 binaries, 0 generals, 0 SOSs, and 0 indicators.
Presolve time = 0.15 sec. (123.32 ticks)
Probing time = 0.00 sec. (1.30 ticks)
Tried aggregator 1 time.
Reduced MIP has 20180 rows, 880 columns, and 60180 nonzeros.
Reduced MIP has 780 binaries, 0 generals, 0 SOSs, and 0 indicators.
Presolve time = 0.03 sec. (27.46 ticks)
Probing time = 0.00 sec. (1.30 ticks)
MIP emphasis: balance optimality and feasibility.
MIP search method: dynamic search.
Parallel mode: deterministic, using up to 8 threads.

Node log . . .
Best integer =   2.900000e+00  Node =       0  Best node =  -4.470000e+01
Best integer =   0.000000e+00  Node =       0  Best node =  -4.470000e+01
Best integer =  -1.040000e+01  Node =       0  Best node =  -1.440000e+01
Best integer =  -1.440000e+01  Node =       0  Best node =  -1.440000e+01
***********************************************************

***********************************************************
-------------------Iteration: 20
CPXPARAM_MIP_Display                             1
CPXPARAM_MIP_Strategy_CallbackReducedLP          0
Tried aggregator 1 time.
No LP presolve or aggregator reductions.
Presolve time = 0.00 sec. (0.08 ticks)

Iteration log . . .
Iteration:     1   Dual objective     =             0.000000
Iteration:    62   Dual objective     =             0.887500
***********************************************************
Objective value of restricted master problem: 1.125
Lamda: 0 0.0273077 0 0.04 0.11 0.126154 0.0607692 0.0934615 0.101154 0.1 0.0346154 0.0596154 0.0384615 0.0203846 0.0411538 0.0411538 0.0238462 0.0511538 0.0192308 0.0115385 
***********************************************************
CPXPARAM_MIP_Display                             1
CPXPARAM_MIP_Strategy_CallbackReducedLP          0
Tried aggregator 2 times.
MIP Presolve eliminated 40300 rows and 0 columns.
Aggregator did 780 substitutions.
Reduced MIP has 20180 rows, 880 columns, and 60180 nonzeros.
Reduced MIP has 780 binaries, 0 generals, 0 SOSs, and 0 indicators.
Presolve time = 0.16 sec. (123.32 ticks)
Probing time = 0.00 sec. (1.30 ticks)
Tried aggregator 1 time.
Reduced MIP has 20180 rows, 880 columns, and 60180 nonzeros.
Reduced MIP has 780 binaries, 0 generals, 0 SOSs, and 0 indicators.
Presolve time = 0.03 sec. (27.44 ticks)
Probing time = 0.01 sec. (1.30 ticks)
MIP emphasis: balance optimality and feasibility.
MIP search method: dynamic search.
Parallel mode: deterministic, using up to 8 threads.

Node log . . .
Best integer =   4.440892e-16  Node =       0  Best node =  -4.300000e+01
Best integer =  -1.200000e+01  Node =       0  Best node =  -1.725000e+01
Best integer =  -1.700000e+01  Node =       0  Best node =  -1.725000e+01

Gomory fractional cuts applied:  6
***********************************************************

***********************************************************
Ranking data list: 
Ranking collect: 0 1 2 3 4 5 6 7 8 9 10 11 12 13 14 15 16 17 18 19 20 21 22 23 24 25 26 27 28 29 30 31 32 33 34 35 36 37 38 39 
Ranking collect: 39 38 37 36 35 34 33 32 31 30 29 28 27 26 25 24 23 22 21 20 19 18 17 16 15 14 13 12 11 10 9 8 7 6 5 4 3 2 1 0 
Ranking collect: 5 14 2 6 7 9 8 17 1 10 11 12 13 15 26 3 4 16 18 19 20 21 22 23 24 27 28 0 25 31 29 30 32 33 34 35 36 37 38 39 
Ranking collect: 9 6 5 10 4 7 0 12 8 16 3 13 30 1 11 15 17 18 19 20 21 22 27 25 2 14 24 23 33 26 28 34 32 36 31 29 35 37 38 39 
Ranking collect: 18 34 36 29 5 2 23 20 15 8 27 21 25 32 4 28 10 22 13 37 17 19 12 30 31 9 35 11 1 0 39 6 26 24 33 14 38 3 16 7 
Ranking collect: 0 1 8 7 9 14 2 6 5 10 11 4 12 13 15 17 18 34 3 26 16 19 20 21 22 23 24 25 27 28 29 30 31 32 33 35 36 37 38 39 
Ranking collect: 33 23 11 39 36 26 15 34 27 19 4 28 16 32 8 21 22 13 20 9 17 0 12 25 37 18 38 31 24 3 29 35 14 7 6 2 10 5 30 1 
Ranking collect: 23 25 12 37 17 8 34 9 28 30 18 39 24 15 13 21 22 19 36 1 5 7 31 2 29 20 0 32 35 14 33 27 6 3 10 16 11 4 38 26 
Ranking collect: 34 23 30 18 4 36 32 21 29 3 35 12 2 0 25 28 39 15 19 13 22 10 31 20 1 37 33 7 11 16 27 5 17 38 24 8 26 6 9 14 
Ranking collect: 4 0 9 5 6 34 16 8 10 11 12 3 7 13 17 1 25 2 14 15 18 19 20 21 22 23 24 26 27 28 29 30 31 32 33 35 36 37 38 39 
Ranking collect: 15 39 27 18 23 24 2 34 25 9 12 31 36 10 21 22 37 13 19 6 35 32 33 20 5 28 17 4 29 30 1 14 11 3 26 8 0 7 38 16 
Ranking collect: 2 5 10 15 1 9 6 32 34 0 4 7 8 3 11 12 13 14 16 17 18 19 20 21 22 23 24 25 26 27 28 29 30 31 33 35 36 37 38 39 
Ranking collect: 15 0 38 26 10 12 25 18 31 34 8 28 39 37 33 21 19 22 13 23 36 27 17 35 2 20 29 5 4 6 32 30 14 1 9 7 3 24 11 16 
Ranking collect: 1 39 27 14 8 25 23 2 18 16 37 34 33 3 5 6 7 10 4 9 11 12 13 15 17 19 20 21 24 0 22 26 28 29 30 31 32 35 36 38 
Ranking collect: 8 15 29 18 23 39 33 34 26 19 25 14 9 1 28 7 10 32 30 4 13 22 21 20 17 38 6 36 0 12 11 27 31 35 24 16 3 2 37 5 
Ranking collect: 34 8 9 24 5 0 33 2 6 18 3 1 7 10 4 11 12 13 14 15 16 17 19 20 21 26 22 23 25 27 28 29 30 31 32 35 36 37 38 39 
Ranking collect: 9 1 5 23 0 10 27 24 3 8 28 7 6 11 12 13 16 17 4 2 26 15 19 20 21 25 14 18 22 29 30 31 32 33 34 35 36 37 38 39 
Ranking collect: 37 1 10 33 23 31 9 34 4 36 8 25 6 26 22 19 13 21 39 20 38 32 35 14 12 27 0 30 29 16 15 28 17 18 7 11 2 24 3 5 
Ranking collect: 6 15 1 26 32 9 5 10 23 18 8 2 4 3 7 11 12 0 14 13 16 17 19 20 21 22 24 25 27 28 29 30 31 33 34 35 36 37 38 39 
Ranking collect: 0 35 2 5 14 9 1 6 28 7 13 18 17 15 10 4 22 34 16 24 12 20 3 11 23 25 8 19 21 26 27 29 30 31 32 33 36 37 38 39 
Ranking collect: 39 27 0 15 30 22 13 4 34 29 31 28 9 37 21 36 1 38 14 18 25 32 19 33 6 20 10 7 17 35 5 23 2 26 8 11 3 16 12 24 
